%nproc=8
%mem=2000mw
%chk=tmp.chk
#p B3LYP/6-31G* em=gd3 nosymm force int=fine

[title]

-1 1
[coord]




